benchmark/results/graph__15-1000-0.10-03_10/graph__15-1000-0.10-03_10_QuintonOs_Benders_primal_sub.lp
\ This file has been generated by DOcplex
\ ENCODING=ISO-8859-1
\Problem name: Quinton Bounded Benders_primal_sub

Maximize
 obj: tau
Subject To
 c1: tau <= 0.000993048659
 c2: y_a0_proc_0 + y_a0_proc_2 - tau = 0
 c3: y_a0_proc_0 <= 0
 c4: y_a0_proc_2 <= 1
 c5: tau <= 0.001736111111
 c6: y_a1_proc_0 + y_a1_proc_1 + y_a1_proc_2 - tau = 0
 c7: y_a1_proc_0 <= 0
 c8: y_a1_proc_1 <= 0
 c9: y_a1_proc_2 <= 1
 c10: tau <= 0.000827129859
 c11: y_a2_proc_0 + y_a2_proc_1 + y_a2_proc_2 - tau = 0
 c12: y_a2_proc_0 <= 0
 c13: y_a2_proc_1 <= 1
 c14: y_a2_proc_2 <= 0
 c15: tau <= 0.000807754443
 c16: y_a3_proc_0 + y_a3_proc_1 - tau = 0
 c17: y_a3_proc_0 <= 1
 c18: y_a3_proc_1 <= 0
 c19: tau <= 0.001515151515
 c20: y_a4_proc_0 + y_a4_proc_1 + y_a4_proc_2 - tau = 0
 c21: y_a4_proc_0 <= 0
 c22: y_a4_proc_1 <= 1
 c23: y_a4_proc_2 <= 0
 c24: tau <= 0.002487562189
 c25: y_a5_proc_0 + y_a5_proc_1 + y_a5_proc_2 - tau = 0
 c26: y_a5_proc_0 <= 0
 c27: y_a5_proc_1 <= 0
 c28: y_a5_proc_2 <= 1
 c29: tau <= 0.001259445844
 c30: y_a6_proc_0 + y_a6_proc_1 + y_a6_proc_2 - tau = 0
 c31: y_a6_proc_0 <= 0
 c32: y_a6_proc_1 <= 0
 c33: y_a6_proc_2 <= 1
 c34: tau <= 0.001112347052
 c35: y_a7_proc_1 + y_a7_proc_2 - tau = 0
 c36: y_a7_proc_1 <= 1
 c37: y_a7_proc_2 <= 0
 c38: tau <= 0.001477104874
 c39: y_a8_proc_0 + y_a8_proc_1 + y_a8_proc_2 - tau = 0
 c40: y_a8_proc_0 <= 0
 c41: y_a8_proc_1 <= 0
 c42: y_a8_proc_2 <= 1
 c43: tau <= 0.002369668246
 c44: y_a9_proc_0 + y_a9_proc_1 + y_a9_proc_2 - tau = 0
 c45: y_a9_proc_0 <= 0
 c46: y_a9_proc_1 <= 0
 c47: y_a9_proc_2 <= 1
 c48: tau <= 0.001197604790
 c49: y_a10_proc_0 + y_a10_proc_1 + y_a10_proc_2 - tau = 0
 c50: y_a10_proc_0 <= 0
 c51: y_a10_proc_1 <= 0
 c52: y_a10_proc_2 <= 1
 c53: tau <= 0.004219409283
 c54: y_a11_proc_0 + y_a11_proc_1 - tau = 0
 c55: y_a11_proc_0 <= 0
 c56: y_a11_proc_1 <= 1
 c57: tau <= 0.000851788756
 c58: y_a12_proc_1 + y_a12_proc_2 - tau = 0
 c59: y_a12_proc_1 <= 1
 c60: y_a12_proc_2 <= 0
 c61: tau <= 0.001092896175
 c62: y_a13_proc_0 + y_a13_proc_1 + y_a13_proc_2 - tau = 0
 c63: y_a13_proc_0 <= 1
 c64: y_a13_proc_1 <= 0
 c65: y_a13_proc_2 <= 0
 c66: tau <= 0.001064962726
 c67: y_a14_proc_0 + y_a14_proc_2 - tau = 0
 c68: y_a14_proc_0 <= 1
 c69: y_a14_proc_2 <= 0
 c70: u_a1 - u_a0 - 1014 y_a0_proc_0 - 1007 y_a0_proc_2 >= 0
 c71: u_a0 - u_a2 - 384 y_a2_proc_0 - 1209 y_a2_proc_1 - 990 y_a2_proc_2 >= 0
 c72: u_a3 - u_a2 - 384 y_a2_proc_0 - 1209 y_a2_proc_1 - 990 y_a2_proc_2 >= 0
 c73: u_a4 - u_a3 - 1238 y_a3_proc_0 - 437 y_a3_proc_1 >= 0
 c74: u_a5 - u_a1 - 838 y_a1_proc_0 - 1272 y_a1_proc_1 - 576 y_a1_proc_2 >= -1
 c75: u_a6 - u_a5 - 780 y_a5_proc_0 - 750 y_a5_proc_1 - 402 y_a5_proc_2 >= 0
 c76: u_a2 - u_a7 - 899 y_a7_proc_1 - 896 y_a7_proc_2 >= 0
 c77: u_a0 - u_a8 - 1002 y_a8_proc_0 - 573 y_a8_proc_1 - 677 y_a8_proc_2 >= 0
 c78: u_a9 - u_a5 - 780 y_a5_proc_0 - 750 y_a5_proc_1 - 402 y_a5_proc_2 >= 0
 c79: u_a9 - u_a10 - 1114 y_a10_proc_0 - 823 y_a10_proc_1 - 835 y_a10_proc_2
       >= 0
 c80: u_a11 - u_a4 - 710 y_a4_proc_0 - 660 y_a4_proc_1 - 667 y_a4_proc_2 >= -1
 c81: u_a7 - u_a12 - 1174 y_a12_proc_1 - 1165 y_a12_proc_2 >= 0
 c82: u_a9 - u_a13 - 915 y_a13_proc_0 - 928 y_a13_proc_1 - 1063 y_a13_proc_2
       >= 0
 c83: u_a12 - u_a14 - 939 y_a14_proc_0 - 633 y_a14_proc_2 >= 0
 c84: u_a11 - u_a6 - 1276 y_a6_proc_0 - 773 y_a6_proc_1 - 794 y_a6_proc_2 >= 0
 c85: u_a5 - u_a13 - 915 y_a13_proc_0 - 928 y_a13_proc_1 - 1063 y_a13_proc_2
       >= 0
 c86: u_a10 - u_a4 - 710 y_a4_proc_0 - 660 y_a4_proc_1 - 667 y_a4_proc_2 >= -1
 c87: u_a3 - u_a9 - 652 y_a9_proc_0 - 860 y_a9_proc_1 - 422 y_a9_proc_2 >= 0
 c88: u_a2 - u_a13 - 915 y_a13_proc_0 - 928 y_a13_proc_1 - 1063 y_a13_proc_2
       >= 0
 c89: u_a8 - u_a11 - 1195 y_a11_proc_0 - 237 y_a11_proc_1 >= 0
 c90: u_a11 - u_a5 - 780 y_a5_proc_0 - 750 y_a5_proc_1 - 402 y_a5_proc_2 >= 0
 c91: u_a6 - u_a9 - 652 y_a9_proc_0 - 860 y_a9_proc_1 - 422 y_a9_proc_2 >= 0
 c92: u_a1 - u_a0 - 1007 y_a0_proc_2 >= 0
 c93: u_a1 - u_a0 - 1014 y_a0_proc_0 >= -2552
 c94: u_a0 - u_a1 - 576 y_a1_proc_2 >= -1
 c95: u_a0 - u_a1 - 838 y_a1_proc_0 >= -2553
 c96: u_a2 - u_a0 - 1007 y_a0_proc_2 >= -1259
 c97: u_a2 - u_a0 - 1014 y_a0_proc_0 >= -2535
 c98: u_a0 - u_a2 - 990 y_a2_proc_2 >= -1294
 c99: u_a0 - u_a2 - 384 y_a2_proc_0 >= -2570
 c100: u_a3 - u_a0 - 1014 y_a0_proc_0 >= -1259
 c101: u_a0 - u_a3 - 1238 y_a3_proc_0 >= -1294
 c102: u_a4 - u_a0 - 1007 y_a0_proc_2 >= -1294
 c103: u_a4 - u_a0 - 1014 y_a0_proc_0 >= -2570
 c104: u_a0 - u_a4 - 667 y_a4_proc_2 >= -1259
 c105: u_a0 - u_a4 - 710 y_a4_proc_0 >= -2535
 c106: u_a5 - u_a0 - 1007 y_a0_proc_2 >= -1
 c107: u_a5 - u_a0 - 1014 y_a0_proc_0 >= -2553
 c108: u_a0 - u_a5 - 402 y_a5_proc_2 >= 0
 c109: u_a0 - u_a5 - 780 y_a5_proc_0 >= -2552
 c110: u_a6 - u_a0 - 1007 y_a0_proc_2 >= -1
 c111: u_a6 - u_a0 - 1014 y_a0_proc_0 >= -2553
 c112: u_a0 - u_a6 - 794 y_a6_proc_2 >= 0
 c113: u_a0 - u_a6 - 1276 y_a6_proc_0 >= -2552
 c114: u_a7 - u_a0 - 1007 y_a0_proc_2 >= -1294
 c115: u_a0 - u_a7 - 896 y_a7_proc_2 >= -1259
 c116: u_a8 - u_a0 - 1007 y_a0_proc_2 >= -1
 c117: u_a8 - u_a0 - 1014 y_a0_proc_0 >= -2553
 c118: u_a0 - u_a8 - 677 y_a8_proc_2 >= 0
 c119: u_a0 - u_a8 - 1002 y_a8_proc_0 >= -2552
 c120: u_a9 - u_a0 - 1007 y_a0_proc_2 >= -1
 c121: u_a9 - u_a0 - 1014 y_a0_proc_0 >= -2553
 c122: u_a0 - u_a9 - 422 y_a9_proc_2 >= 0
 c123: u_a0 - u_a9 - 652 y_a9_proc_0 >= -2552
 c124: u_a10 - u_a0 - 1007 y_a0_proc_2 >= -1
 c125: u_a10 - u_a0 - 1014 y_a0_proc_0 >= -2553
 c126: u_a0 - u_a10 - 835 y_a10_proc_2 >= 0
 c127: u_a0 - u_a10 - 1114 y_a10_proc_0 >= -2552
 c128: u_a11 - u_a0 - 1014 y_a0_proc_0 >= -2570
 c129: u_a0 - u_a11 - 1195 y_a11_proc_0 >= -2535
 c130: u_a12 - u_a0 - 1007 y_a0_proc_2 >= -1294
 c131: u_a0 - u_a12 - 1165 y_a12_proc_2 >= -1259
 c132: u_a13 - u_a0 - 1007 y_a0_proc_2 >= -1259
 c133: u_a13 - u_a0 - 1014 y_a0_proc_0 >= -1259
 c134: u_a0 - u_a13 - 1063 y_a13_proc_2 >= -1294
 c135: u_a0 - u_a13 - 915 y_a13_proc_0 >= -1294
 c136: u_a14 - u_a0 - 1007 y_a0_proc_2 >= -1259
 c137: u_a14 - u_a0 - 1014 y_a0_proc_0 >= -1259
 c138: u_a0 - u_a14 - 633 y_a14_proc_2 >= -1294
 c139: u_a0 - u_a14 - 939 y_a14_proc_0 >= -1294
 c140: u_a2 - u_a1 - 576 y_a1_proc_2 >= -1294
 c141: u_a2 - u_a1 - 838 y_a1_proc_0 >= -2570
 c142: u_a2 - u_a1 - 1272 y_a1_proc_1 >= -1294
 c143: u_a1 - u_a2 - 990 y_a2_proc_2 >= -1259
 c144: u_a1 - u_a2 - 384 y_a2_proc_0 >= -2535
 c145: u_a1 - u_a2 - 1209 y_a2_proc_1 >= -1259
 c146: u_a3 - u_a1 - 838 y_a1_proc_0 >= -1259
 c147: u_a3 - u_a1 - 1272 y_a1_proc_1 >= -2535
 c148: u_a1 - u_a3 - 1238 y_a3_proc_0 >= -1294
 c149: u_a1 - u_a3 - 437 y_a3_proc_1 >= -2570
 c150: u_a4 - u_a1 - 576 y_a1_proc_2 >= -1259
 c151: u_a4 - u_a1 - 838 y_a1_proc_0 >= -2535
 c152: u_a4 - u_a1 - 1272 y_a1_proc_1 >= -1259
 c153: u_a1 - u_a4 - 667 y_a4_proc_2 >= -1294
 c154: u_a1 - u_a4 - 710 y_a4_proc_0 >= -2570
 c155: u_a1 - u_a4 - 660 y_a4_proc_1 >= -1294
 c156: u_a5 - u_a1 - 576 y_a1_proc_2 >= -1
 c157: u_a5 - u_a1 - 838 y_a1_proc_0 >= -2553
 c158: u_a5 - u_a1 - 1272 y_a1_proc_1 >= -2553
 c159: u_a1 - u_a5 - 402 y_a5_proc_2 >= 0
 c160: u_a1 - u_a5 - 780 y_a5_proc_0 >= -2552
 c161: u_a1 - u_a5 - 750 y_a5_proc_1 >= -2552
 c162: u_a6 - u_a1 - 576 y_a1_proc_2 >= -1
 c163: u_a6 - u_a1 - 838 y_a1_proc_0 >= -2553
 c164: u_a6 - u_a1 - 1272 y_a1_proc_1 >= -2553
 c165: u_a1 - u_a6 - 794 y_a6_proc_2 >= 0
 c166: u_a1 - u_a6 - 1276 y_a6_proc_0 >= -2552
 c167: u_a1 - u_a6 - 773 y_a6_proc_1 >= -2552
 c168: u_a7 - u_a1 - 576 y_a1_proc_2 >= -1259
 c169: u_a7 - u_a1 - 1272 y_a1_proc_1 >= -1259
 c170: u_a1 - u_a7 - 896 y_a7_proc_2 >= -1294
 c171: u_a1 - u_a7 - 899 y_a7_proc_1 >= -1294
 c172: u_a8 - u_a1 - 576 y_a1_proc_2 >= -1
 c173: u_a8 - u_a1 - 838 y_a1_proc_0 >= -2553
 c174: u_a8 - u_a1 - 1272 y_a1_proc_1 >= -2553
 c175: u_a1 - u_a8 - 677 y_a8_proc_2 >= 0
 c176: u_a1 - u_a8 - 1002 y_a8_proc_0 >= -2552
 c177: u_a1 - u_a8 - 573 y_a8_proc_1 >= -2552
 c178: u_a9 - u_a1 - 576 y_a1_proc_2 >= -1
 c179: u_a9 - u_a1 - 838 y_a1_proc_0 >= -2553
 c180: u_a9 - u_a1 - 1272 y_a1_proc_1 >= -2553
 c181: u_a1 - u_a9 - 422 y_a9_proc_2 >= 0
 c182: u_a1 - u_a9 - 652 y_a9_proc_0 >= -2552
 c183: u_a1 - u_a9 - 860 y_a9_proc_1 >= -2552
 c184: u_a10 - u_a1 - 576 y_a1_proc_2 >= -1
 c185: u_a10 - u_a1 - 838 y_a1_proc_0 >= -2553
 c186: u_a10 - u_a1 - 1272 y_a1_proc_1 >= -2553
 c187: u_a1 - u_a10 - 835 y_a10_proc_2 >= 0
 c188: u_a1 - u_a10 - 1114 y_a10_proc_0 >= -2552
 c189: u_a1 - u_a10 - 823 y_a10_proc_1 >= -2552
 c190: u_a11 - u_a1 - 838 y_a1_proc_0 >= -2570
 c191: u_a11 - u_a1 - 1272 y_a1_proc_1 >= -1294
 c192: u_a1 - u_a11 - 1195 y_a11_proc_0 >= -2535
 c193: u_a1 - u_a11 - 237 y_a11_proc_1 >= -1259
 c194: u_a12 - u_a1 - 576 y_a1_proc_2 >= -1259
 c195: u_a12 - u_a1 - 1272 y_a1_proc_1 >= -1259
 c196: u_a1 - u_a12 - 1165 y_a12_proc_2 >= -1294
 c197: u_a1 - u_a12 - 1174 y_a12_proc_1 >= -1294
 c198: u_a13 - u_a1 - 576 y_a1_proc_2 >= -1259
 c199: u_a13 - u_a1 - 838 y_a1_proc_0 >= -1259
 c200: u_a13 - u_a1 - 1272 y_a1_proc_1 >= -2535
 c201: u_a1 - u_a13 - 1063 y_a13_proc_2 >= -1294
 c202: u_a1 - u_a13 - 915 y_a13_proc_0 >= -1294
 c203: u_a1 - u_a13 - 928 y_a13_proc_1 >= -2570
 c204: u_a14 - u_a1 - 576 y_a1_proc_2 >= -1259
 c205: u_a14 - u_a1 - 838 y_a1_proc_0 >= -1259
 c206: u_a1 - u_a14 - 633 y_a14_proc_2 >= -1294
 c207: u_a1 - u_a14 - 939 y_a14_proc_0 >= -1294
 c208: u_a3 - u_a2 - 384 y_a2_proc_0 >= -1259
 c209: u_a3 - u_a2 - 1209 y_a2_proc_1 >= -1259
 c210: u_a2 - u_a3 - 1238 y_a3_proc_0 >= -1294
 c211: u_a2 - u_a3 - 437 y_a3_proc_1 >= -1294
 c212: u_a4 - u_a2 - 990 y_a2_proc_2 >= -2537
 c213: u_a4 - u_a2 - 384 y_a2_proc_0 >= -2537
 c214: u_a4 - u_a2 - 1209 y_a2_proc_1 >= 15
 c215: u_a2 - u_a4 - 667 y_a4_proc_2 >= -2568
 c216: u_a2 - u_a4 - 710 y_a4_proc_0 >= -2568
 c217: u_a2 - u_a4 - 660 y_a4_proc_1 >= -16
 c218: u_a5 - u_a2 - 990 y_a2_proc_2 >= -1259
 c219: u_a5 - u_a2 - 384 y_a2_proc_0 >= -2535
 c220: u_a5 - u_a2 - 1209 y_a2_proc_1 >= -1259
 c221: u_a2 - u_a5 - 402 y_a5_proc_2 >= -1294
 c222: u_a2 - u_a5 - 780 y_a5_proc_0 >= -2570
 c223: u_a2 - u_a5 - 750 y_a5_proc_1 >= -1294
 c224: u_a6 - u_a2 - 990 y_a2_proc_2 >= -1294
 c225: u_a6 - u_a2 - 384 y_a2_proc_0 >= -2570
 c226: u_a6 - u_a2 - 1209 y_a2_proc_1 >= -1294
 c227: u_a2 - u_a6 - 794 y_a6_proc_2 >= -1259
 c228: u_a2 - u_a6 - 1276 y_a6_proc_0 >= -2535
 c229: u_a2 - u_a6 - 773 y_a6_proc_1 >= -1259
 c230: u_a7 - u_a2 - 990 y_a2_proc_2 >= -2553
 c231: u_a7 - u_a2 - 1209 y_a2_proc_1 >= -1
 c232: u_a2 - u_a7 - 896 y_a7_proc_2 >= -2552
 c233: u_a2 - u_a7 - 899 y_a7_proc_1 >= 0
 c234: u_a8 - u_a2 - 990 y_a2_proc_2 >= -1259
 c235: u_a8 - u_a2 - 384 y_a2_proc_0 >= -2535
 c236: u_a8 - u_a2 - 1209 y_a2_proc_1 >= -1259
 c237: u_a2 - u_a8 - 677 y_a8_proc_2 >= -1294
 c238: u_a2 - u_a8 - 1002 y_a8_proc_0 >= -2570
 c239: u_a2 - u_a8 - 573 y_a8_proc_1 >= -1294
 c240: u_a9 - u_a2 - 990 y_a2_proc_2 >= -1294
 c241: u_a9 - u_a2 - 384 y_a2_proc_0 >= -2570
 c242: u_a9 - u_a2 - 1209 y_a2_proc_1 >= -1294
 c243: u_a2 - u_a9 - 422 y_a9_proc_2 >= -1259
 c244: u_a2 - u_a9 - 652 y_a9_proc_0 >= -2535
 c245: u_a2 - u_a9 - 860 y_a9_proc_1 >= -1259
 c246: u_a10 - u_a2 - 990 y_a2_proc_2 >= -1259
 c247: u_a10 - u_a2 - 384 y_a2_proc_0 >= -2535
 c248: u_a10 - u_a2 - 1209 y_a2_proc_1 >= -1259
 c249: u_a2 - u_a10 - 835 y_a10_proc_2 >= -1294
 c250: u_a2 - u_a10 - 1114 y_a10_proc_0 >= -2570
 c251: u_a2 - u_a10 - 823 y_a10_proc_1 >= -1294
 c252: u_a11 - u_a2 - 384 y_a2_proc_0 >= -2537
 c253: u_a11 - u_a2 - 1209 y_a2_proc_1 >= 15
 c254: u_a2 - u_a11 - 1195 y_a11_proc_0 >= -2568
 c255: u_a2 - u_a11 - 237 y_a11_proc_1 >= -16
 c256: u_a12 - u_a2 - 990 y_a2_proc_2 >= -2555
 c257: u_a12 - u_a2 - 1209 y_a2_proc_1 >= -3
 c258: u_a2 - u_a12 - 1165 y_a12_proc_2 >= -2550
 c259: u_a2 - u_a12 - 1174 y_a12_proc_1 >= 2
 c260: u_a13 - u_a2 - 990 y_a2_proc_2 >= -2570
 c261: u_a13 - u_a2 - 384 y_a2_proc_0 >= -1294
 c262: u_a13 - u_a2 - 1209 y_a2_proc_1 >= -1294
 c263: u_a2 - u_a13 - 1063 y_a13_proc_2 >= -2535
 c264: u_a2 - u_a13 - 915 y_a13_proc_0 >= -1259
 c265: u_a2 - u_a13 - 928 y_a13_proc_1 >= -1259
 c266: u_a14 - u_a2 - 990 y_a2_proc_2 >= -2535
 c267: u_a14 - u_a2 - 384 y_a2_proc_0 >= -1259
 c268: u_a2 - u_a14 - 633 y_a14_proc_2 >= -2570
 c269: u_a2 - u_a14 - 939 y_a14_proc_0 >= -1294
 c270: u_a4 - u_a3 - 1238 y_a3_proc_0 >= -1294
 c271: u_a4 - u_a3 - 437 y_a3_proc_1 >= -1294
 c272: u_a3 - u_a4 - 710 y_a4_proc_0 >= -1259
 c273: u_a3 - u_a4 - 660 y_a4_proc_1 >= -1259
 c274: u_a5 - u_a3 - 1238 y_a3_proc_0 >= -1294
 c275: u_a5 - u_a3 - 437 y_a3_proc_1 >= -2570
 c276: u_a3 - u_a5 - 780 y_a5_proc_0 >= -1259
 c277: u_a3 - u_a5 - 750 y_a5_proc_1 >= -2535
 c278: u_a6 - u_a3 - 1238 y_a3_proc_0 >= -1259
 c279: u_a6 - u_a3 - 437 y_a3_proc_1 >= -2535
 c280: u_a3 - u_a6 - 1276 y_a6_proc_0 >= -1294
 c281: u_a3 - u_a6 - 773 y_a6_proc_1 >= -2570
 c282: u_a7 - u_a3 - 437 y_a3_proc_1 >= -1294
 c283: u_a3 - u_a7 - 899 y_a7_proc_1 >= -1259
 c284: u_a8 - u_a3 - 1238 y_a3_proc_0 >= -1294
 c285: u_a8 - u_a3 - 437 y_a3_proc_1 >= -2570
 c286: u_a3 - u_a8 - 1002 y_a8_proc_0 >= -1259
 c287: u_a3 - u_a8 - 573 y_a8_proc_1 >= -2535
 c288: u_a9 - u_a3 - 1238 y_a3_proc_0 >= -1294
 c289: u_a9 - u_a3 - 437 y_a3_proc_1 >= -2570
 c290: u_a3 - u_a9 - 652 y_a9_proc_0 >= -1259
 c291: u_a3 - u_a9 - 860 y_a9_proc_1 >= -2535
 c292: u_a10 - u_a3 - 1238 y_a3_proc_0 >= -1294
 c293: u_a10 - u_a3 - 437 y_a3_proc_1 >= -2570
 c294: u_a3 - u_a10 - 1114 y_a10_proc_0 >= -1259
 c295: u_a3 - u_a10 - 823 y_a10_proc_1 >= -2535
 c296: u_a11 - u_a3 - 1238 y_a3_proc_0 >= -1294
 c297: u_a11 - u_a3 - 437 y_a3_proc_1 >= -1294
 c298: u_a3 - u_a11 - 1195 y_a11_proc_0 >= -1259
 c299: u_a3 - u_a11 - 237 y_a11_proc_1 >= -1259
 c300: u_a12 - u_a3 - 437 y_a3_proc_1 >= -1259
 c301: u_a3 - u_a12 - 1174 y_a12_proc_1 >= -1294
 c302: u_a13 - u_a3 - 1238 y_a3_proc_0 >= -18
 c303: u_a13 - u_a3 - 437 y_a3_proc_1 >= -2570
 c304: u_a3 - u_a13 - 915 y_a13_proc_0 >= 17
 c305: u_a3 - u_a13 - 928 y_a13_proc_1 >= -2535
 c306: u_a14 - u_a3 - 1238 y_a3_proc_0 >= -18
 c307: u_a3 - u_a14 - 939 y_a14_proc_0 >= 17
 c308: u_a5 - u_a4 - 667 y_a4_proc_2 >= -1294
 c309: u_a5 - u_a4 - 710 y_a4_proc_0 >= -2570
 c310: u_a5 - u_a4 - 660 y_a4_proc_1 >= -1294
 c311: u_a4 - u_a5 - 402 y_a5_proc_2 >= -1259
 c312: u_a4 - u_a5 - 780 y_a5_proc_0 >= -2535
 c313: u_a4 - u_a5 - 750 y_a5_proc_1 >= -1259
 c314: u_a6 - u_a4 - 667 y_a4_proc_2 >= -1294
 c315: u_a6 - u_a4 - 710 y_a4_proc_0 >= -2570
 c316: u_a6 - u_a4 - 660 y_a4_proc_1 >= -1294
 c317: u_a4 - u_a6 - 794 y_a6_proc_2 >= -1259
 c318: u_a4 - u_a6 - 1276 y_a6_proc_0 >= -2535
 c319: u_a4 - u_a6 - 773 y_a6_proc_1 >= -1259
 c320: u_a7 - u_a4 - 667 y_a4_proc_2 >= -2569
 c321: u_a7 - u_a4 - 660 y_a4_proc_1 >= -17
 c322: u_a4 - u_a7 - 896 y_a7_proc_2 >= -2536
 c323: u_a4 - u_a7 - 899 y_a7_proc_1 >= 16
 c324: u_a8 - u_a4 - 667 y_a4_proc_2 >= -1294
 c325: u_a8 - u_a4 - 710 y_a4_proc_0 >= -2570
 c326: u_a8 - u_a4 - 660 y_a4_proc_1 >= -1294
 c327: u_a4 - u_a8 - 677 y_a8_proc_2 >= -1259
 c328: u_a4 - u_a8 - 1002 y_a8_proc_0 >= -2535
 c329: u_a4 - u_a8 - 573 y_a8_proc_1 >= -1259
 c330: u_a9 - u_a4 - 667 y_a4_proc_2 >= -1294
 c331: u_a9 - u_a4 - 710 y_a4_proc_0 >= -2570
 c332: u_a9 - u_a4 - 660 y_a4_proc_1 >= -1294
 c333: u_a4 - u_a9 - 422 y_a9_proc_2 >= -1259
 c334: u_a4 - u_a9 - 652 y_a9_proc_0 >= -2535
 c335: u_a4 - u_a9 - 860 y_a9_proc_1 >= -1259
 c336: u_a10 - u_a4 - 667 y_a4_proc_2 >= -1294
 c337: u_a10 - u_a4 - 710 y_a4_proc_0 >= -2570
 c338: u_a10 - u_a4 - 660 y_a4_proc_1 >= -1294
 c339: u_a4 - u_a10 - 835 y_a10_proc_2 >= -1259
 c340: u_a4 - u_a10 - 1114 y_a10_proc_0 >= -2535
 c341: u_a4 - u_a10 - 823 y_a10_proc_1 >= -1259
 c342: u_a11 - u_a4 - 710 y_a4_proc_0 >= -2553
 c343: u_a11 - u_a4 - 660 y_a4_proc_1 >= -1
 c344: u_a4 - u_a11 - 1195 y_a11_proc_0 >= -2552
 c345: u_a4 - u_a11 - 237 y_a11_proc_1 >= 0
 c346: u_a12 - u_a4 - 667 y_a4_proc_2 >= -2570
 c347: u_a12 - u_a4 - 660 y_a4_proc_1 >= -18
 c348: u_a4 - u_a12 - 1165 y_a12_proc_2 >= -2535
 c349: u_a4 - u_a12 - 1174 y_a12_proc_1 >= 17
 c350: u_a13 - u_a4 - 667 y_a4_proc_2 >= -2535
 c351: u_a13 - u_a4 - 710 y_a4_proc_0 >= -1259
 c352: u_a13 - u_a4 - 660 y_a4_proc_1 >= -1259
 c353: u_a4 - u_a13 - 1063 y_a13_proc_2 >= -2570
 c354: u_a4 - u_a13 - 915 y_a13_proc_0 >= -1294
 c355: u_a4 - u_a13 - 928 y_a13_proc_1 >= -1294
 c356: u_a14 - u_a4 - 667 y_a4_proc_2 >= -2535
 c357: u_a14 - u_a4 - 710 y_a4_proc_0 >= -1259
 c358: u_a4 - u_a14 - 633 y_a14_proc_2 >= -2570
 c359: u_a4 - u_a14 - 939 y_a14_proc_0 >= -1294
 c360: u_a6 - u_a5 - 402 y_a5_proc_2 >= 0
 c361: u_a6 - u_a5 - 780 y_a5_proc_0 >= -2552
 c362: u_a6 - u_a5 - 750 y_a5_proc_1 >= -2552
 c363: u_a5 - u_a6 - 794 y_a6_proc_2 >= -1
 c364: u_a5 - u_a6 - 1276 y_a6_proc_0 >= -2553
 c365: u_a5 - u_a6 - 773 y_a6_proc_1 >= -2553
 c366: u_a7 - u_a5 - 402 y_a5_proc_2 >= -1294
 c367: u_a7 - u_a5 - 750 y_a5_proc_1 >= -1294
 c368: u_a5 - u_a7 - 896 y_a7_proc_2 >= -1259
 c369: u_a5 - u_a7 - 899 y_a7_proc_1 >= -1259
 c370: u_a8 - u_a5 - 402 y_a5_proc_2 >= 0
 c371: u_a8 - u_a5 - 780 y_a5_proc_0 >= -2552
 c372: u_a8 - u_a5 - 750 y_a5_proc_1 >= -2552
 c373: u_a5 - u_a8 - 677 y_a8_proc_2 >= -1
 c374: u_a5 - u_a8 - 1002 y_a8_proc_0 >= -2553
 c375: u_a5 - u_a8 - 573 y_a8_proc_1 >= -2553
 c376: u_a9 - u_a5 - 402 y_a5_proc_2 >= 0
 c377: u_a9 - u_a5 - 780 y_a5_proc_0 >= -2552
 c378: u_a9 - u_a5 - 750 y_a5_proc_1 >= -2552
 c379: u_a5 - u_a9 - 422 y_a9_proc_2 >= -1
 c380: u_a5 - u_a9 - 652 y_a9_proc_0 >= -2553
 c381: u_a5 - u_a9 - 860 y_a9_proc_1 >= -2553
 c382: u_a10 - u_a5 - 402 y_a5_proc_2 >= 0
 c383: u_a10 - u_a5 - 780 y_a5_proc_0 >= -2552
 c384: u_a10 - u_a5 - 750 y_a5_proc_1 >= -2552
 c385: u_a5 - u_a10 - 835 y_a10_proc_2 >= -1
 c386: u_a5 - u_a10 - 1114 y_a10_proc_0 >= -2553
 c387: u_a5 - u_a10 - 823 y_a10_proc_1 >= -2553
 c388: u_a11 - u_a5 - 780 y_a5_proc_0 >= -2570
 c389: u_a11 - u_a5 - 750 y_a5_proc_1 >= -1294
 c390: u_a5 - u_a11 - 1195 y_a11_proc_0 >= -2535
 c391: u_a5 - u_a11 - 237 y_a11_proc_1 >= -1259
 c392: u_a12 - u_a5 - 402 y_a5_proc_2 >= -1294
 c393: u_a12 - u_a5 - 750 y_a5_proc_1 >= -1294
 c394: u_a5 - u_a12 - 1165 y_a12_proc_2 >= -1259
 c395: u_a5 - u_a12 - 1174 y_a12_proc_1 >= -1259
 c396: u_a13 - u_a5 - 402 y_a5_proc_2 >= -1294
 c397: u_a13 - u_a5 - 780 y_a5_proc_0 >= -1294
 c398: u_a13 - u_a5 - 750 y_a5_proc_1 >= -2570
 c399: u_a5 - u_a13 - 1063 y_a13_proc_2 >= -1259
 c400: u_a5 - u_a13 - 915 y_a13_proc_0 >= -1259
 c401: u_a5 - u_a13 - 928 y_a13_proc_1 >= -2535
 c402: u_a14 - u_a5 - 402 y_a5_proc_2 >= -1259
 c403: u_a14 - u_a5 - 780 y_a5_proc_0 >= -1259
 c404: u_a5 - u_a14 - 633 y_a14_proc_2 >= -1294
 c405: u_a5 - u_a14 - 939 y_a14_proc_0 >= -1294
 c406: u_a7 - u_a6 - 794 y_a6_proc_2 >= -1259
 c407: u_a7 - u_a6 - 773 y_a6_proc_1 >= -1259
 c408: u_a6 - u_a7 - 896 y_a7_proc_2 >= -1294
 c409: u_a6 - u_a7 - 899 y_a7_proc_1 >= -1294
 c410: u_a8 - u_a6 - 794 y_a6_proc_2 >= 0
 c411: u_a8 - u_a6 - 1276 y_a6_proc_0 >= -2552
 c412: u_a8 - u_a6 - 773 y_a6_proc_1 >= -2552
 c413: u_a6 - u_a8 - 677 y_a8_proc_2 >= -1
 c414: u_a6 - u_a8 - 1002 y_a8_proc_0 >= -2553
 c415: u_a6 - u_a8 - 573 y_a8_proc_1 >= -2553
 c416: u_a9 - u_a6 - 794 y_a6_proc_2 >= -1
 c417: u_a9 - u_a6 - 1276 y_a6_proc_0 >= -2553
 c418: u_a9 - u_a6 - 773 y_a6_proc_1 >= -2553
 c419: u_a6 - u_a9 - 422 y_a9_proc_2 >= 0
 c420: u_a6 - u_a9 - 652 y_a9_proc_0 >= -2552
 c421: u_a6 - u_a9 - 860 y_a9_proc_1 >= -2552
 c422: u_a10 - u_a6 - 794 y_a6_proc_2 >= -1
 c423: u_a10 - u_a6 - 1276 y_a6_proc_0 >= -2553
 c424: u_a10 - u_a6 - 773 y_a6_proc_1 >= -2553
 c425: u_a6 - u_a10 - 835 y_a10_proc_2 >= 0
 c426: u_a6 - u_a10 - 1114 y_a10_proc_0 >= -2552
 c427: u_a6 - u_a10 - 823 y_a10_proc_1 >= -2552
 c428: u_a11 - u_a6 - 1276 y_a6_proc_0 >= -2570
 c429: u_a11 - u_a6 - 773 y_a6_proc_1 >= -1294
 c430: u_a6 - u_a11 - 1195 y_a11_proc_0 >= -2535
 c431: u_a6 - u_a11 - 237 y_a11_proc_1 >= -1259
 c432: u_a12 - u_a6 - 794 y_a6_proc_2 >= -1259
 c433: u_a12 - u_a6 - 773 y_a6_proc_1 >= -1259
 c434: u_a6 - u_a12 - 1165 y_a12_proc_2 >= -1294
 c435: u_a6 - u_a12 - 1174 y_a12_proc_1 >= -1294
 c436: u_a13 - u_a6 - 794 y_a6_proc_2 >= -1259
 c437: u_a13 - u_a6 - 1276 y_a6_proc_0 >= -1259
 c438: u_a13 - u_a6 - 773 y_a6_proc_1 >= -2535
 c439: u_a6 - u_a13 - 1063 y_a13_proc_2 >= -1294
 c440: u_a6 - u_a13 - 915 y_a13_proc_0 >= -1294
 c441: u_a6 - u_a13 - 928 y_a13_proc_1 >= -2570
 c442: u_a14 - u_a6 - 794 y_a6_proc_2 >= -1259
 c443: u_a14 - u_a6 - 1276 y_a6_proc_0 >= -1259
 c444: u_a6 - u_a14 - 633 y_a14_proc_2 >= -1294
 c445: u_a6 - u_a14 - 939 y_a14_proc_0 >= -1294
 c446: u_a8 - u_a7 - 896 y_a7_proc_2 >= -1294
 c447: u_a8 - u_a7 - 899 y_a7_proc_1 >= -1294
 c448: u_a7 - u_a8 - 677 y_a8_proc_2 >= -1259
 c449: u_a7 - u_a8 - 573 y_a8_proc_1 >= -1259
 c450: u_a9 - u_a7 - 896 y_a7_proc_2 >= -1259
 c451: u_a9 - u_a7 - 899 y_a7_proc_1 >= -1259
 c452: u_a7 - u_a9 - 422 y_a9_proc_2 >= -1294
 c453: u_a7 - u_a9 - 860 y_a9_proc_1 >= -1294
 c454: u_a10 - u_a7 - 896 y_a7_proc_2 >= -1294
 c455: u_a10 - u_a7 - 899 y_a7_proc_1 >= -1294
 c456: u_a7 - u_a10 - 835 y_a10_proc_2 >= -1259
 c457: u_a7 - u_a10 - 823 y_a10_proc_1 >= -1259
 c458: u_a11 - u_a7 - 899 y_a7_proc_1 >= 16
 c459: u_a7 - u_a11 - 237 y_a11_proc_1 >= -17
 c460: u_a12 - u_a7 - 896 y_a7_proc_2 >= -2554
 c461: u_a12 - u_a7 - 899 y_a7_proc_1 >= -2
 c462: u_a7 - u_a12 - 1165 y_a12_proc_2 >= -2551
 c463: u_a7 - u_a12 - 1174 y_a12_proc_1 >= 1
 c464: u_a13 - u_a7 - 896 y_a7_proc_2 >= -2535
 c465: u_a13 - u_a7 - 899 y_a7_proc_1 >= -1259
 c466: u_a7 - u_a13 - 1063 y_a13_proc_2 >= -2570
 c467: u_a7 - u_a13 - 928 y_a13_proc_1 >= -1294
 c468: u_a14 - u_a7 - 896 y_a7_proc_2 >= -2570
 c469: u_a7 - u_a14 - 633 y_a14_proc_2 >= -2535
 c470: u_a9 - u_a8 - 677 y_a8_proc_2 >= -1
 c471: u_a9 - u_a8 - 1002 y_a8_proc_0 >= -2553
 c472: u_a9 - u_a8 - 573 y_a8_proc_1 >= -2553
 c473: u_a8 - u_a9 - 422 y_a9_proc_2 >= 0
 c474: u_a8 - u_a9 - 652 y_a9_proc_0 >= -2552
 c475: u_a8 - u_a9 - 860 y_a9_proc_1 >= -2552
 c476: u_a10 - u_a8 - 677 y_a8_proc_2 >= -1
 c477: u_a10 - u_a8 - 1002 y_a8_proc_0 >= -2553
 c478: u_a10 - u_a8 - 573 y_a8_proc_1 >= -2553
 c479: u_a8 - u_a10 - 835 y_a10_proc_2 >= 0
 c480: u_a8 - u_a10 - 1114 y_a10_proc_0 >= -2552
 c481: u_a8 - u_a10 - 823 y_a10_proc_1 >= -2552
 c482: u_a11 - u_a8 - 1002 y_a8_proc_0 >= -2535
 c483: u_a11 - u_a8 - 573 y_a8_proc_1 >= -1259
 c484: u_a8 - u_a11 - 1195 y_a11_proc_0 >= -2570
 c485: u_a8 - u_a11 - 237 y_a11_proc_1 >= -1294
 c486: u_a12 - u_a8 - 677 y_a8_proc_2 >= -1259
 c487: u_a12 - u_a8 - 573 y_a8_proc_1 >= -1259
 c488: u_a8 - u_a12 - 1165 y_a12_proc_2 >= -1294
 c489: u_a8 - u_a12 - 1174 y_a12_proc_1 >= -1294
 c490: u_a13 - u_a8 - 677 y_a8_proc_2 >= -1259
 c491: u_a13 - u_a8 - 1002 y_a8_proc_0 >= -1259
 c492: u_a13 - u_a8 - 573 y_a8_proc_1 >= -2535
 c493: u_a8 - u_a13 - 1063 y_a13_proc_2 >= -1294
 c494: u_a8 - u_a13 - 915 y_a13_proc_0 >= -1294
 c495: u_a8 - u_a13 - 928 y_a13_proc_1 >= -2570
 c496: u_a14 - u_a8 - 677 y_a8_proc_2 >= -1259
 c497: u_a14 - u_a8 - 1002 y_a8_proc_0 >= -1259
 c498: u_a8 - u_a14 - 633 y_a14_proc_2 >= -1294
 c499: u_a8 - u_a14 - 939 y_a14_proc_0 >= -1294
 c500: u_a10 - u_a9 - 422 y_a9_proc_2 >= -1
 c501: u_a10 - u_a9 - 652 y_a9_proc_0 >= -2553
 c502: u_a10 - u_a9 - 860 y_a9_proc_1 >= -2553
 c503: u_a9 - u_a10 - 835 y_a10_proc_2 >= 0
 c504: u_a9 - u_a10 - 1114 y_a10_proc_0 >= -2552
 c505: u_a9 - u_a10 - 823 y_a10_proc_1 >= -2552
 c506: u_a11 - u_a9 - 652 y_a9_proc_0 >= -2570
 c507: u_a11 - u_a9 - 860 y_a9_proc_1 >= -1294
 c508: u_a9 - u_a11 - 1195 y_a11_proc_0 >= -2535
 c509: u_a9 - u_a11 - 237 y_a11_proc_1 >= -1259
 c510: u_a12 - u_a9 - 422 y_a9_proc_2 >= -1259
 c511: u_a12 - u_a9 - 860 y_a9_proc_1 >= -1259
 c512: u_a9 - u_a12 - 1165 y_a12_proc_2 >= -1294
 c513: u_a9 - u_a12 - 1174 y_a12_proc_1 >= -1294
 c514: u_a13 - u_a9 - 422 y_a9_proc_2 >= -1259
 c515: u_a13 - u_a9 - 652 y_a9_proc_0 >= -1259
 c516: u_a13 - u_a9 - 860 y_a9_proc_1 >= -2535
 c517: u_a9 - u_a13 - 1063 y_a13_proc_2 >= -1294
 c518: u_a9 - u_a13 - 915 y_a13_proc_0 >= -1294
 c519: u_a9 - u_a13 - 928 y_a13_proc_1 >= -2570
 c520: u_a14 - u_a9 - 422 y_a9_proc_2 >= -1259
 c521: u_a14 - u_a9 - 652 y_a9_proc_0 >= -1259
 c522: u_a9 - u_a14 - 633 y_a14_proc_2 >= -1294
 c523: u_a9 - u_a14 - 939 y_a14_proc_0 >= -1294
 c524: u_a11 - u_a10 - 1114 y_a10_proc_0 >= -2535
 c525: u_a11 - u_a10 - 823 y_a10_proc_1 >= -1259
 c526: u_a10 - u_a11 - 1195 y_a11_proc_0 >= -2570
 c527: u_a10 - u_a11 - 237 y_a11_proc_1 >= -1294
 c528: u_a12 - u_a10 - 835 y_a10_proc_2 >= -1294
 c529: u_a12 - u_a10 - 823 y_a10_proc_1 >= -1294
 c530: u_a10 - u_a12 - 1165 y_a12_proc_2 >= -1259
 c531: u_a10 - u_a12 - 1174 y_a12_proc_1 >= -1259
 c532: u_a13 - u_a10 - 835 y_a10_proc_2 >= -1259
 c533: u_a13 - u_a10 - 1114 y_a10_proc_0 >= -1259
 c534: u_a13 - u_a10 - 823 y_a10_proc_1 >= -2535
 c535: u_a10 - u_a13 - 1063 y_a13_proc_2 >= -1294
 c536: u_a10 - u_a13 - 915 y_a13_proc_0 >= -1294
 c537: u_a10 - u_a13 - 928 y_a13_proc_1 >= -2570
 c538: u_a14 - u_a10 - 835 y_a10_proc_2 >= -1259
 c539: u_a14 - u_a10 - 1114 y_a10_proc_0 >= -1259
 c540: u_a10 - u_a14 - 633 y_a14_proc_2 >= -1294
 c541: u_a10 - u_a14 - 939 y_a14_proc_0 >= -1294
 c542: u_a12 - u_a11 - 237 y_a11_proc_1 >= -18
 c543: u_a11 - u_a12 - 1174 y_a12_proc_1 >= 17
 c544: u_a13 - u_a11 - 1195 y_a11_proc_0 >= -1294
 c545: u_a13 - u_a11 - 237 y_a11_proc_1 >= -1294
 c546: u_a11 - u_a13 - 915 y_a13_proc_0 >= -1259
 c547: u_a11 - u_a13 - 928 y_a13_proc_1 >= -1259
 c548: u_a14 - u_a11 - 1195 y_a11_proc_0 >= -1259
 c549: u_a11 - u_a14 - 939 y_a14_proc_0 >= -1294
 c550: u_a13 - u_a12 - 1165 y_a12_proc_2 >= -2570
 c551: u_a13 - u_a12 - 1174 y_a12_proc_1 >= -1294
 c552: u_a12 - u_a13 - 1063 y_a13_proc_2 >= -2535
 c553: u_a12 - u_a13 - 928 y_a13_proc_1 >= -1259
 c554: u_a14 - u_a12 - 1165 y_a12_proc_2 >= -2570
 c555: u_a12 - u_a14 - 633 y_a14_proc_2 >= -2535
 c556: u_a14 - u_a13 - 1063 y_a13_proc_2 >= -2553
 c557: u_a14 - u_a13 - 915 y_a13_proc_0 >= -1
 c558: u_a13 - u_a14 - 633 y_a14_proc_2 >= -2552
 c559: u_a13 - u_a14 - 939 y_a14_proc_0 >= 0

Bounds
End
